param set_len = 46;
param target_sum = 14570545281;
param values := [1] 1038618160 [2] 453750112 [3] 94427775 [4] 640583360 [5] 947358667 [6] 879562806 [7] 803765453 [8] 717149665 [9] 896505275 [10] 282721869 [11] 327672023 [12] 49691229 [13] 613188486 [14] 989810281 [15] 210187842 [16] 985520697 [17] 815640644 [18] 387431305 [19] 602646846 [20] 567854134 [21] 535500647 [22] 11749437 [23] 952748133 [24] 662915743 [25] 344799543 [26] 716729190 [27] 833641016 [28] 869195653 [29] 893623528 [30] 1063551890 [31] 448313962 [32] 304169891 [33] 1054019762 [34] 225446439 [35] 425499433 [36] 576705943 [37] 729571726 [38] 962023376 [39] 268296691 [40] 454930332 [41] 634312511 [42] 139432298 [43] 487622810 [44] 1072335223 [45] 442636657 [46] 1023238263 ;
